
  32    4
   1   1   1   1

   0   0   0   0   0  16 2 3 4 6 9 10 11 12 13 14 15 16 28 29 30 31 
   1   1   1   0   1   7   26   25   24   18   8   7   5
   5   1   0   0   1   4   27   21   20   17
   3   1   0   0   0   4   21   20   18   17
   1   0   0   1   0   3   23   19   17
   9   0   1   0   1   3   22   19   17
   6   0   1   1   1   2   21   20
   7   0   1   1   1   2   23   22
   5   0   1   0   0   2   18   17
   4   1   0   0   1   2   27   18
   10   0   0   1   1   2   26   18
   10   1   1   1   0   2   19   17
   10   0   0   0   1   1   25
   10   1   1   1   1   1   24
   5   0   1   1   1   1   18
   2   1   1   0   0   1   17
   5   0   1   1   0   1   32
   4   0   0   1   0   1   32
   8   1   1   0   0   1   32
   7   1   1   1   1   1   32
   5   0   0   0   1   1   32
   3   0   1   0   1   1   32
   10   1   1   0   1   1   32
   5   0   1   0   0   1   32
   5   1   0   0   0   1   32
   10   0   0   0   1   1   32
   6   1   1   1   1   1   32
   5   0   1   0   0   1   32
   3   0   1   0   0   1   32
   8   1   1   0   1   1   32
   10   1   0   0   1   1   32
   0   0   0   0   0   0 
